(set-logic HORN)
(declare-fun state (Int (Array Int Int) (Array Int Int) (Array Int Int) (Array Int Int) Int Int (Array Int Int) (Array Int Int) Int Int Int Int Int Int Int Int Int Int Int Int Int Int Int Int Int Int Int Int Int Int Int Int Int Int Int Int Int Int Int Int Int Int Int Int Int Int Int Int Int Bool Bool Bool Bool Bool Bool (Array Int Int)) Bool)
(assert (forall ((|A_43| Int) (|B_43| (Array Int Int)) (|C_43| (Array Int Int)) (|D_43| (Array Int Int)) (|E_43| (Array Int Int)) (|F_43| Int) (|G_43| Int) (|H_43| (Array Int Int)) (|I_43| (Array Int Int)) (|J_43| Int) (|K_43| Int) (|L_43| Int) (|M_43| Int) (|N_43| Int) (|O_43| Int) (|P_43| Int) (|Q_43| Int) (|R_43| Int) (|S_43| Int) (|T_43| Int) (|U_43| Int) (|V_43| Int) (|W_43| Int) (|X_43| Int) (|Y_43| Int) (|Z_43| Int) (|A1_43| Int) (|B1_43| Int) (|C1_43| Int) (|D1_43| Int) (|E1_43| Int) (|F1_43| Int) (|G1_43| Int) (|H1_43| Int) (|I1_43| Int) (|J1_43| Int) (|K1_43| Int) (|L1_43| Int) (|M1_43| Int) (|N1_43| Int) (|O1_43| Int) (|P1_43| Int) (|Q1_43| Int) (|R1_43| Int) (|S1_43| Int) (|T1_43| Int) (|U1_43| Int) (|V1_43| Int) (|W1_43| Int) (|X1_43| Int) (|Z1_25| Bool) (|.loc.6| Bool) (|.loc.7| Bool) (|.loc.8| Bool) (|.loc.9| Bool) (|.loc.10| Bool) (|Z1_0| (Array Int Int)) (|.x.2157| Int) (|.x.2155| (Array Int Int)) (|.x.2153| Int) (|.x.2151| (Array Int Int)) (|.x.2147| Int) (|.x.2149| (Array Int Int)) (|.x.2148| (Array Int Int)) (|Y1_43| Bool) (|.x.2159| Int) (|.x.2160| Int) (|.x.2164| Int) (|.x.2165| Int) (|.x.2170| Int) (|.x.2171| Int) (|.x.2172| Int) (|.x.2173| Int) (|.x.2177| Int) (|.x.2179| Int) (|.x.2182| Int) (|.x.2184| Int) (|.x.2186| Int) (|.x.2189| Int) (|.x.2192| Int) (|.x.2193| Int) (|.loc.13| Bool) (|.loc.12| Bool) (|.x.2175| Int) (|.x.2162| Int) (|.x.2176| Int) (|.x.2194| Int) (|.loc.11| Bool) (|.x.2188| Int) (|.x.2187| Int) (|.loc.14| Bool) (|.loc.15| Bool) (|.x.2174| Int) (|.x.2150| (Array Int Int)) (|.x.2183| Int) (|.x.2185| Int) (|.x.2181| Int) (|.x.2180| Int) (|.x.2191| Int) (|.x.2178| Int) (|.x.2190| Int) (|.x.2168| Int) (|.x.2195| Int) (|.x.2169| Int) (|.x.2196| Int) (|.x.2166| Int) (|.x.2167| Int) (|.x.2163| Int) (|.x.2158| Int) (|.x.2161| Int) (|.x.2156| Int) (|.x.2152| Int) (|.x.2154| (Array Int Int)) (|.xtv.1| (Array Int Int))) (=> (and (and (and (and (and .loc.6 (not .loc.7)) (not .loc.8)) (not .loc.9)) (not .loc.10)) (and (and (and (and (and (= D_43 E_43) (not Z1_25)) (= J_43 K_43)) (= F_43 G_43)) (= H_43 I_43)) (= B_43 C_43))) (state |A_43| |B_43| |C_43| |D_43| |E_43| |F_43| |G_43| |H_43| |I_43| |J_43| |K_43| |L_43| |M_43| |N_43| |O_43| |P_43| |Q_43| |R_43| |S_43| |T_43| |U_43| |V_43| |W_43| |X_43| |Y_43| |Z_43| |A1_43| |B1_43| |C1_43| |D1_43| |E1_43| |F1_43| |G1_43| |H1_43| |I1_43| |J1_43| |K1_43| |L1_43| |M1_43| |N1_43| |O1_43| |P1_43| |Q1_43| |R1_43| |S1_43| |T1_43| |U1_43| |V1_43| |W1_43| |X1_43| |Z1_25| |.loc.6| |.loc.7| |.loc.8| |.loc.9| |.loc.10| |Z1_0|))))
(assert (forall ((|A_43| Int) (|B_43| (Array Int Int)) (|C_43| (Array Int Int)) (|D_43| (Array Int Int)) (|E_43| (Array Int Int)) (|F_43| Int) (|G_43| Int) (|H_43| (Array Int Int)) (|I_43| (Array Int Int)) (|J_43| Int) (|K_43| Int) (|L_43| Int) (|M_43| Int) (|N_43| Int) (|O_43| Int) (|P_43| Int) (|Q_43| Int) (|R_43| Int) (|S_43| Int) (|T_43| Int) (|U_43| Int) (|V_43| Int) (|W_43| Int) (|X_43| Int) (|Y_43| Int) (|Z_43| Int) (|A1_43| Int) (|B1_43| Int) (|C1_43| Int) (|D1_43| Int) (|E1_43| Int) (|F1_43| Int) (|G1_43| Int) (|H1_43| Int) (|I1_43| Int) (|J1_43| Int) (|K1_43| Int) (|L1_43| Int) (|M1_43| Int) (|N1_43| Int) (|O1_43| Int) (|P1_43| Int) (|Q1_43| Int) (|R1_43| Int) (|S1_43| Int) (|T1_43| Int) (|U1_43| Int) (|V1_43| Int) (|W1_43| Int) (|X1_43| Int) (|Z1_25| Bool) (|.loc.6| Bool) (|.loc.7| Bool) (|.loc.8| Bool) (|.loc.9| Bool) (|.loc.10| Bool) (|Z1_0| (Array Int Int)) (|.x.2157| Int) (|.x.2155| (Array Int Int)) (|.x.2153| Int) (|.x.2151| (Array Int Int)) (|.x.2147| Int) (|.x.2149| (Array Int Int)) (|.x.2148| (Array Int Int)) (|Y1_43| Bool) (|.x.2159| Int) (|.x.2160| Int) (|.x.2164| Int) (|.x.2165| Int) (|.x.2170| Int) (|.x.2171| Int) (|.x.2172| Int) (|.x.2173| Int) (|.x.2177| Int) (|.x.2179| Int) (|.x.2182| Int) (|.x.2184| Int) (|.x.2186| Int) (|.x.2189| Int) (|.x.2192| Int) (|.x.2193| Int) (|.loc.13| Bool) (|.loc.12| Bool) (|.x.2175| Int) (|.x.2162| Int) (|.x.2176| Int) (|.x.2194| Int) (|.loc.11| Bool) (|.x.2188| Int) (|.x.2187| Int) (|.loc.14| Bool) (|.loc.15| Bool) (|.x.2174| Int) (|.x.2150| (Array Int Int)) (|.x.2183| Int) (|.x.2185| Int) (|.x.2181| Int) (|.x.2180| Int) (|.x.2191| Int) (|.x.2178| Int) (|.x.2190| Int) (|.x.2168| Int) (|.x.2195| Int) (|.x.2169| Int) (|.x.2196| Int) (|.x.2166| Int) (|.x.2167| Int) (|.x.2163| Int) (|.x.2158| Int) (|.x.2161| Int) (|.x.2156| Int) (|.x.2152| Int) (|.x.2154| (Array Int Int)) (|.xtv.1| (Array Int Int))) (=> (and (state |A_43| |B_43| |C_43| |D_43| |E_43| |F_43| |G_43| |H_43| |I_43| |J_43| |K_43| |L_43| |M_43| |N_43| |O_43| |P_43| |Q_43| |R_43| |S_43| |T_43| |U_43| |V_43| |W_43| |X_43| |Y_43| |Z_43| |A1_43| |B1_43| |C1_43| |D1_43| |E1_43| |F1_43| |G1_43| |H1_43| |I1_43| |J1_43| |K1_43| |L1_43| |M1_43| |N1_43| |O1_43| |P1_43| |Q1_43| |R1_43| |S1_43| |T1_43| |U1_43| |V1_43| |W1_43| |X1_43| |Z1_25| |.loc.6| |.loc.7| |.loc.8| |.loc.9| |.loc.10| |Z1_0|) (let ((.def_67 (not .loc.7))) (let ((.def_69 (not .loc.8))) (let ((.def_71 (not .loc.9))) (let ((.def_73 (not .loc.10))) (let ((.def_105 (= B_43 .x.2148))) (let ((.def_109 (= M_43 .x.2159))) (let ((.def_112 (= N_43 .x.2160))) (let ((.def_115 (= R_43 .x.2164))) (let ((.def_118 (= S_43 .x.2165))) (let ((.def_121 (= X_43 .x.2170))) (let ((.def_124 (= Y_43 .x.2171))) (let ((.def_127 (= Z_43 .x.2172))) (let ((.def_130 (= A1_43 .x.2173))) (let ((.def_133 (= E1_43 .x.2177))) (let ((.def_136 (= G1_43 .x.2179))) (let ((.def_139 (= J1_43 .x.2182))) (let ((.def_142 (= L1_43 .x.2184))) (let ((.def_145 (= N1_43 .x.2186))) (let ((.def_148 (= Q1_43 .x.2189))) (let ((.def_151 (= T1_43 .x.2192))) (let ((.def_154 (= U1_43 .x.2193))) (let ((.def_156 (not .loc.6))) (let ((.def_173 (= Z1_25 Y1_43))) (let ((.def_180 (not .loc.12))) (let ((.def_183 (= P_43 0))) (let ((.def_186 (and .def_112 (and .def_105 .def_109)))) (let ((.def_200 (and .def_154 (and .def_151 (and .def_148 (and .def_145 (and .def_142 (and .def_139 (and .def_136 (and .def_133 (and .def_130 (and .def_127 (and .def_124 (and .def_121 (and .def_118 (and .def_115 .def_186)))))))))))))))) (let ((.def_204 (not .loc.13))) (let ((.def_210 (= C1_43 .x.2175))) (let ((.def_212 (= P_43 .x.2162))) (let ((.def_215 (= D1_43 .x.2176))) (let ((.def_218 (= V1_43 .x.2194))) (let ((.def_221 (not .loc.11))) (let ((.def_228 (select D_43 E1_43))) (let ((.def_232 (select D_43 N1_43))) (let ((.def_237 (<= 100000 O1_43))) (let ((.def_257 (= P1_43 .x.2188))) (let ((.def_259 (= O1_43 .x.2187))) (let ((.def_270 (and .def_118 (and .def_115 (and .def_186 .def_212))))) (let ((.def_274 (and .def_130 (and .def_127 (and .def_124 (and .def_121 .def_270)))))) (let ((.def_303 (and .def_145 (and .def_142 (and .def_139 (and .def_136 (and .def_133 (and .def_215 (and .def_210 .def_274))))))))) (let ((.def_320 (and Z1_25 .def_105))) (let ((.def_342 (and .def_218 (and .def_154 (and .def_151 (and .def_148 (and .def_257 (and .def_259 (and .def_145 (and .def_142 (and .def_139 (and .def_136 (and .def_133 (and .def_215 (and .def_210 (and .def_130 (and .def_127 (and .def_124 (and .def_121 (and .def_118 (and .def_115 (and .def_212 (and .def_112 (and .def_109 .def_320)))))))))))))))))))))))) (let ((.def_359 (and .def_218 (and .def_154 (and .def_151 (and .def_148 (and .def_257 (and .def_259 .def_303)))))))) (let ((.def_372 (not .loc.14))) (let ((.def_386 (not .loc.15))) (let ((.def_392 (and .def_156 (and .loc.9 (and .loc.8 (and .loc.7 .def_359)))))) (let ((.def_400 (<= 100000 K1_43))) (let ((.def_401 (or Z1_25 .def_400))) (let ((.def_405 (= B1_43 .x.2174))) (let ((.def_407 (= D_43 .x.2150))) (let ((.def_410 (= K1_43 .x.2183))) (let ((.def_413 (= M1_43 .x.2185))) (let ((.def_416 (* 4 K1_43))) (let ((.def_425 (not .def_400))) (let ((.def_438 (or Y1_43 (= (+ K1_43 (* (- 1) .x.2183)) (- 1))))) (let ((.def_449 (and .def_118 (and .def_115 (and .def_212 (and .def_112 (and .def_109 (and .def_105 .def_407)))))))) (let ((.def_457 (and .def_133 (and .def_215 (and .def_210 (and .def_405 (and .def_130 (and .def_127 (and .def_124 (and .def_121 .def_449)))))))))) (let ((.def_458 (and .def_136 .def_457))) (let ((.def_459 (and .def_139 .def_458))) (let ((.def_469 (and .def_218 (and .def_154 (and .def_151 (and .def_148 (and .def_257 (and .def_259 (and .def_145 (and .def_413 (and .def_142 (and .def_410 .def_459)))))))))))) (let ((.def_488 (and .def_118 (and .def_115 (and .def_212 (and .def_112 (and .def_109 (and .def_320 .def_407)))))))) (let ((.def_496 (and .def_133 (and .def_215 (and .def_210 (and .def_405 (and .def_130 (and .def_127 (and .def_124 (and .def_121 .def_488)))))))))) (let ((.def_497 (and .def_136 .def_496))) (let ((.def_508 (and .def_218 (and .def_154 (and .def_151 (and .def_148 (and .def_257 (and .def_259 (and .def_145 (and .def_413 (and .def_142 (and .def_410 (and .def_139 .def_497))))))))))))) (let ((.def_542 (or Z1_25 (= .x.2183 0)))) (let ((.def_571 (= I1_43 .x.2181))) (let ((.def_573 (= H1_43 .x.2180))) (let ((.def_577 (select D_43 L1_43))) (let ((.def_587 (and .def_133 (and .def_215 (and .def_210 (and .def_274 .def_405)))))) (let ((.def_588 (and .def_136 .def_587))) (let ((.def_615 (and .def_139 (and .def_571 (and .def_458 .def_573))))) (let ((.def_687 (= S1_43 .x.2191))) (let ((.def_689 (= F1_43 .x.2178))) (let ((.def_693 (select D_43 A1_43))) (let ((.def_730 (and .def_139 (and .def_571 (and .def_573 (and .def_136 (and .def_457 .def_689))))))) (let ((.def_807 (= R1_43 .x.2190))) (let ((.def_809 (= V_43 .x.2168))) (let ((.def_813 (select D_43 N_43))) (let ((.def_849 (and .def_449 .def_809))) (let ((.def_862 (and .def_139 (and .def_571 (and .def_573 (and .def_136 (and .def_689 (and .def_133 (and .def_215 (and .def_210 (and .def_405 (and .def_130 (and .def_127 (and .def_124 (and .def_121 .def_849))))))))))))))) (let ((.def_887 (and .def_488 .def_809))) (let ((.def_951 (= W1_43 .x.2195))) (let ((.def_953 (= W_43 .x.2169))) (let ((.def_957 (select D_43 Z_43))) (let ((.def_964 (and .def_270 .def_809))) (let ((.def_1016 (and .def_139 (and .def_571 (and .def_573 (and .def_136 (and .def_689 (and .def_133 (and .def_215 (and .def_210 (and .def_405 (and .def_130 (and .def_127 (and .def_124 (and .def_121 (and .def_849 .def_953)))))))))))))))) (let ((.def_1108 (= X1_43 .x.2196))) (let ((.def_1110 (= T_43 .x.2166))) (let ((.def_1176 (and .def_139 (and .def_571 (and .def_573 (and .def_136 (and .def_689 (and .def_133 (and .def_215 (and .def_210 (and .def_405 (and .def_130 (and .def_127 (and .def_124 (and .def_121 (and .def_953 (and .def_809 (and .def_449 .def_1110)))))))))))))))))) (let ((.def_1245 (<= 100000 O_43))) (let ((.def_1291 (store D_43 N1_43 (store .def_232 (+ (* 4 O_43) Q1_43) L_43)))) (let ((.def_1432 (store Z1_0 .x.2186 1))) (let ((.def_1436 (store .def_1432 .x.2172 1))) (let ((.def_1440 (store .def_1436 .x.2160 1))) (let ((.def_1441 (store .def_1440 .x.2173 1))) (let ((.def_1442 (store .def_1441 .x.2184 1))) (let ((.def_1443 (store .def_1442 .x.2165 1))) (and (and (= K_43 .x.2157) (and (= I_43 .x.2155) (and (= G_43 .x.2153) (and (= E_43 .x.2151) (and (= A_43 .x.2147) (= C_43 .x.2149)))))) (or (and (or (and (or (or (or (or (and (or (or (or (or (and (or (or (or (or (and (or (or (or (or (and (or (or (or (or (and (or (or (or (or (or (or (and (or (or (and (or (or (or (and (or (and (or (and (or (and (or (and (and (and (and (and (and (and (and (and (and (and (and (and (and (and (and (and (and .def_105 Y1_43) .def_109) .def_112) .def_115) .def_118) .def_121) .def_124) .def_127) .def_130) .def_133) .def_136) .def_139) .def_142) .def_145) .def_148) .def_151) .def_154) .def_156) (and (or Z1_25 (and (= .x.2148 (store (store (store (store (store (store (store B_43 N1_43 0) Z_43 0) N_43 0) A1_43 0) L1_43 0) S_43 0) E1_43 0)) (= .x.2193 0))) (and (and .loc.6 (or Y1_43 (= .x.2170 .x.2193))) .def_173))) (and (and .loc.7 .loc.13) .def_180)) (and (or Z1_25 .def_183) (and .def_67 (and (and .def_173 (and .loc.12 (and .loc.6 .def_200))) .def_204)))) (and (and (and (and .def_210 .def_212) .def_215) .def_218) .def_221)) (and (or Z1_25 (and (= .x.2162 .x.2194) (and (= .x.2175 (select .def_228 (+ G1_43 (* 4 O1_43)))) (and (= .x.2176 (select .def_232 (+ (* 4 O1_43) Q1_43))) (and (not .def_237) (= .x.2194 (ite (= .x.2175 .x.2176) 1 0))))))) (and .def_67 (and .def_204 (and .def_173 (and .def_180 (and .loc.11 (and .def_156 .def_200)))))))) (and .loc.10 (and .def_257 .def_259))) (and (or Y1_43 (= (+ O1_43 (* (- 1) .x.2187)) (- 1))) (and .def_73 (and .def_67 (and .def_204 (and .def_173 (and .def_180 (and .def_221 (and .def_156 (and .def_218 (and .def_154 (and .def_151 (and .def_148 (and .def_145 (and .def_142 (and .def_139 (and .def_136 (and .def_133 .def_274)))))))))))))))))) (and .def_69 .def_71)) (and (or Z1_25 (= .x.2187 0)) (and .def_73 (and .def_204 (and .def_173 (and .def_180 (and .def_221 (and .loc.9 (and .loc.8 (and .loc.7 (and .loc.6 (and .def_218 (and .def_154 (and .def_151 (and .def_148 (and .def_257 .def_303)))))))))))))))) (and .def_67 (and .def_204 (and .def_173 (and .loc.12 (and .loc.11 (and .def_71 (and .def_69 (and .def_156 (and .loc.10 .def_342)))))))))) (and (or Z1_25 .def_237) (and .def_67 (and .def_204 (and .def_173 (and .loc.12 (and .loc.11 (and .def_71 (and .def_69 (and .def_156 (and .loc.10 .def_359))))))))))) (and .def_372 .loc.15)) (and (and .def_73 (and .def_173 (and .loc.14 (and .loc.13 (and .loc.12 (and .loc.11 (and .def_156 (and .loc.9 (and .loc.8 (and .loc.7 .def_342)))))))))) .def_386)) (and (and .def_386 (and .def_73 (and .def_173 (and .loc.14 (and .loc.13 (and .loc.12 (and .loc.11 .def_392))))))) .def_401)) (and (and (and .def_405 .def_407) .def_410) .def_413)) (and (or Z1_25 (and (= .x.2150 (store D_43 E1_43 (store .def_228 (+ G1_43 .def_416) (select (select D_43 S_43) (+ .def_416 T1_43))))) .def_425)) (and (and .def_386 (and .def_73 (and .def_173 (and .def_221 (and .loc.14 (and .loc.13 (and .loc.12 .def_392))))))) .def_438))) (and (or Z1_25 (not .def_183)) (and .def_386 (and .def_67 (and .def_204 (and .def_173 (and .def_372 (and .def_180 (and .def_221 (and .def_71 (and .def_69 (and .loc.10 (and .loc.6 .def_469))))))))))))) (and .def_386 (and .def_204 (and .def_173 (and .def_372 (and .def_180 (and .def_221 (and .def_71 (and .def_69 (and .def_156 (and .loc.10 (and .loc.7 .def_508)))))))))))) (and (and .def_386 (and .def_73 (and .def_67 (and .def_173 (and .def_221 (and .loc.14 (and .loc.13 (and .loc.12 (and .loc.9 (and .loc.8 (and .loc.6 (and .def_218 (and .def_154 (and .def_151 (and .def_148 (and .def_257 (and .def_259 (and .def_145 (and .def_413 (and .def_142 .def_459)))))))))))))))))))) .def_542)) (and .def_386 (and .def_73 (and .def_67 (and .def_173 (and .def_180 (and .loc.14 (and .loc.13 (and .loc.11 (and .def_156 (and .loc.9 (and .loc.8 .def_508)))))))))))) (and .def_401 (and .def_386 (and .def_73 (and .def_67 (and .def_173 (and .def_180 (and .loc.14 (and .loc.13 (and .loc.11 (and .def_156 (and .loc.9 (and .loc.8 .def_469))))))))))))) (and .def_571 .def_573)) (and (or Z1_25 (and .def_425 (= .x.2150 (store D_43 E1_43 (store .def_228 (+ G1_43 .def_416) (select .def_577 (+ R_43 .def_416))))))) (and .def_438 (and .def_386 (and .def_73 (and .def_67 (and .def_173 (and .def_180 (and .def_221 (and .loc.14 (and .loc.13 (and .def_156 (and .loc.9 (and .loc.8 (and .def_218 (and .def_154 (and .def_151 (and .def_148 (and .def_257 (and .def_259 (and .def_145 (and .def_413 (and .def_142 (and .def_139 .def_588)))))))))))))))))))))))) (and .def_542 (and .def_386 (and .def_73 (and .def_173 (and .def_180 (and .def_221 (and .loc.14 (and .loc.13 (and .def_69 (and .loc.9 (and .loc.7 (and .loc.6 (and .def_218 (and .def_154 (and .def_151 (and .def_148 (and .def_257 (and .def_259 (and .def_145 (and .def_413 (and .def_142 .def_615)))))))))))))))))))))) (and .def_386 (and .def_73 (and .def_204 (and .def_173 (and .loc.14 (and .loc.12 (and .loc.11 (and .def_69 (and .def_156 (and .loc.9 (and .loc.7 (and .def_218 (and .def_154 (and .def_151 (and .def_148 (and .def_257 (and .def_259 (and .def_145 (and .def_413 (and .def_142 (and .def_410 (and .def_139 (and .def_571 (and .def_497 .def_573))))))))))))))))))))))))) (and .def_401 (and .def_386 (and .def_73 (and .def_204 (and .def_173 (and .loc.14 (and .loc.12 (and .loc.11 (and .def_69 (and .def_156 (and .loc.9 (and .loc.7 (and .def_218 (and .def_154 (and .def_151 (and .def_148 (and .def_257 (and .def_259 (and .def_145 (and .def_413 (and .def_142 (and .def_410 .def_615))))))))))))))))))))))) (and .def_687 .def_689)) (and (or Z1_25 (and .def_425 (= .x.2150 (store D_43 L1_43 (store .def_577 (+ R_43 .def_416) (select .def_693 (+ J1_43 .def_416))))))) (and .def_438 (and .def_386 (and .def_73 (and .def_204 (and .def_173 (and .def_221 (and .loc.14 (and .loc.12 (and .def_69 (and .def_156 (and .loc.9 (and .loc.7 (and .def_218 (and .def_154 (and .def_151 (and .def_148 (and .def_257 (and .def_259 (and .def_145 (and .def_413 (and .def_142 (and .def_139 (and .def_571 (and .def_573 .def_588)))))))))))))))))))))))))) (and .def_542 (and .def_386 (and .def_73 (and .def_67 (and .def_204 (and .def_173 (and .def_221 (and .loc.14 (and .loc.12 (and .def_69 (and .loc.9 (and .loc.6 (and .def_218 (and .def_154 (and .def_151 (and .def_687 (and .def_148 (and .def_257 (and .def_259 (and .def_145 (and .def_413 (and .def_142 .def_730))))))))))))))))))))))) (and .def_386 (and .def_73 (and .def_67 (and .def_204 (and .def_173 (and .def_180 (and .loc.14 (and .loc.11 (and .def_69 (and .def_156 (and .loc.9 (and .def_218 (and .def_154 (and .def_151 (and .def_687 (and .def_148 (and .def_257 (and .def_259 (and .def_145 (and .def_413 (and .def_142 (and .def_410 (and .def_139 (and .def_571 (and .def_573 (and .def_136 (and .def_496 .def_689)))))))))))))))))))))))))))) (and .def_401 (and .def_386 (and .def_73 (and .def_67 (and .def_204 (and .def_173 (and .def_180 (and .loc.14 (and .loc.11 (and .def_69 (and .def_156 (and .loc.9 (and .def_218 (and .def_154 (and .def_151 (and .def_687 (and .def_148 (and .def_257 (and .def_259 (and .def_145 (and .def_413 (and .def_142 (and .def_410 .def_730)))))))))))))))))))))))) (and .def_807 .def_809)) (and (or Z1_25 (and .def_425 (= .x.2150 (store D_43 A1_43 (store .def_693 (+ J1_43 .def_416) (select .def_813 (+ Y_43 .def_416))))))) (and .def_438 (and .def_386 (and .def_73 (and .def_67 (and .def_204 (and .def_173 (and .def_180 (and .def_221 (and .loc.14 (and .def_69 (and .def_156 (and .loc.9 (and .def_218 (and .def_154 (and .def_151 (and .def_687 (and .def_148 (and .def_257 (and .def_259 (and .def_145 (and .def_413 (and .def_142 (and .def_139 (and .def_571 (and .def_573 (and .def_136 (and .def_587 .def_689))))))))))))))))))))))))))))) (and .def_542 (and .def_386 (and .def_73 (and .def_204 (and .def_173 (and .def_180 (and .def_221 (and .loc.14 (and .def_71 (and .loc.8 (and .loc.7 (and .loc.6 (and .def_218 (and .def_154 (and .def_151 (and .def_687 (and .def_807 (and .def_148 (and .def_257 (and .def_259 (and .def_145 (and .def_413 (and .def_142 .def_862)))))))))))))))))))))))) (and .def_386 (and .def_73 (and .def_173 (and .def_372 (and .loc.13 (and .loc.12 (and .loc.11 (and .def_71 (and .def_156 (and .loc.8 (and .loc.7 (and .def_218 (and .def_154 (and .def_151 (and .def_687 (and .def_807 (and .def_148 (and .def_257 (and .def_259 (and .def_145 (and .def_413 (and .def_142 (and .def_410 (and .def_139 (and .def_571 (and .def_573 (and .def_136 (and .def_689 (and .def_133 (and .def_215 (and .def_210 (and .def_405 (and .def_130 (and .def_127 (and .def_124 (and .def_121 .def_887))))))))))))))))))))))))))))))))))))) (and .def_401 (and .def_386 (and .def_73 (and .def_173 (and .def_372 (and .loc.13 (and .loc.12 (and .loc.11 (and .def_71 (and .def_156 (and .loc.8 (and .loc.7 (and .def_218 (and .def_154 (and .def_151 (and .def_687 (and .def_807 (and .def_148 (and .def_257 (and .def_259 (and .def_145 (and .def_413 (and .def_142 (and .def_410 .def_862))))))))))))))))))))))))) (and .def_951 .def_953)) (and (or Z1_25 (and .def_425 (= .x.2150 (store D_43 N_43 (store .def_813 (+ Y_43 .def_416) (select .def_957 (+ M_43 .def_416))))))) (and .def_438 (and .def_386 (and .def_73 (and .def_173 (and .def_372 (and .def_221 (and .loc.13 (and .loc.12 (and .def_71 (and .def_156 (and .loc.8 (and .loc.7 (and .def_218 (and .def_154 (and .def_151 (and .def_687 (and .def_807 (and .def_148 (and .def_257 (and .def_259 (and .def_145 (and .def_413 (and .def_142 (and .def_139 (and .def_571 (and .def_573 (and .def_136 (and .def_689 (and .def_133 (and .def_215 (and .def_210 (and .def_405 (and .def_130 (and .def_127 (and .def_124 (and .def_121 .def_964)))))))))))))))))))))))))))))))))))))) (and .def_542 (and .def_386 (and .def_73 (and .def_67 (and .def_173 (and .def_372 (and .def_221 (and .loc.13 (and .loc.12 (and .def_71 (and .loc.8 (and .loc.6 (and .def_951 (and .def_218 (and .def_154 (and .def_151 (and .def_687 (and .def_807 (and .def_148 (and .def_257 (and .def_259 (and .def_145 (and .def_413 (and .def_142 .def_1016))))))))))))))))))))))))) (and .def_386 (and .def_73 (and .def_67 (and .def_173 (and .def_372 (and .def_180 (and .loc.13 (and .loc.11 (and .def_71 (and .def_156 (and .loc.8 (and .def_951 (and .def_218 (and .def_154 (and .def_151 (and .def_687 (and .def_807 (and .def_148 (and .def_257 (and .def_259 (and .def_145 (and .def_413 (and .def_142 (and .def_410 (and .def_139 (and .def_571 (and .def_573 (and .def_136 (and .def_689 (and .def_133 (and .def_215 (and .def_210 (and .def_405 (and .def_130 (and .def_127 (and .def_124 (and .def_121 (and .def_887 .def_953))))))))))))))))))))))))))))))))))))))) (and .def_401 (and .def_386 (and .def_73 (and .def_67 (and .def_173 (and .def_372 (and .def_180 (and .loc.13 (and .loc.11 (and .def_71 (and .def_156 (and .loc.8 (and .def_951 (and .def_218 (and .def_154 (and .def_151 (and .def_687 (and .def_807 (and .def_148 (and .def_257 (and .def_259 (and .def_145 (and .def_413 (and .def_142 (and .def_410 .def_1016)))))))))))))))))))))))))) (and .def_1108 .def_1110)) (and (or Z1_25 (and .def_425 (= .x.2150 (store D_43 Z_43 (store .def_957 (+ M_43 .def_416) (select .def_232 (+ .def_416 Q1_43))))))) (and .def_438 (and .def_386 (and .def_73 (and .def_67 (and .def_173 (and .def_372 (and .def_180 (and .def_221 (and .loc.13 (and .def_71 (and .def_156 (and .loc.8 (and .def_951 (and .def_218 (and .def_154 (and .def_151 (and .def_687 (and .def_807 (and .def_148 (and .def_257 (and .def_259 (and .def_145 (and .def_413 (and .def_142 (and .def_139 (and .def_571 (and .def_573 (and .def_136 (and .def_689 (and .def_133 (and .def_215 (and .def_210 (and .def_405 (and .def_130 (and .def_127 (and .def_124 (and .def_121 (and .def_953 .def_964)))))))))))))))))))))))))))))))))))))))) (and .def_542 (and .def_386 (and .def_73 (and .def_173 (and .def_372 (and .def_180 (and .def_221 (and .loc.13 (and .def_71 (and .def_69 (and .loc.7 (and .loc.6 (and .def_1108 (and .def_951 (and .def_218 (and .def_154 (and .def_151 (and .def_687 (and .def_807 (and .def_148 (and .def_257 (and .def_259 (and .def_145 (and .def_413 (and .def_142 .def_1176)))))))))))))))))))))))))) (and .def_386 (and .def_73 (and .def_204 (and .def_173 (and .def_372 (and .loc.12 (and .loc.11 (and .def_71 (and .def_69 (and .def_156 (and .loc.7 (and .def_1108 (and .def_951 (and .def_218 (and .def_154 (and .def_151 (and .def_687 (and .def_807 (and .def_148 (and .def_257 (and .def_259 (and .def_145 (and .def_413 (and .def_142 (and .def_410 (and .def_139 (and .def_571 (and .def_573 (and .def_136 (and .def_689 (and .def_133 (and .def_215 (and .def_210 (and .def_405 (and .def_130 (and .def_127 (and .def_124 (and .def_121 (and .def_953 (and .def_809 (and .def_488 .def_1110)))))))))))))))))))))))))))))))))))))))))) (and (or Z1_25 .def_1245) (and .def_386 (and .def_73 (and .def_204 (and .def_173 (and .def_372 (and .loc.12 (and .loc.11 (and .def_71 (and .def_69 (and .def_156 (and .loc.7 (and .def_1108 (and .def_951 (and .def_218 (and .def_154 (and .def_151 (and .def_687 (and .def_807 (and .def_148 (and .def_257 (and .def_259 (and .def_145 (and .def_413 (and .def_142 (and .def_410 .def_1176))))))))))))))))))))))))))) (and (= U_43 .x.2167) (and (= Q_43 .x.2163) (and (= L_43 .x.2158) (= O_43 .x.2161))))) (and (or Z1_25 (and (= .x.2150 (store .def_1291 S_43 (store (select .def_1291 S_43) (+ (* 4 O_43) T1_43) Q_43))) (and (<= (- 2147483648) Q_43) (and (<= (- 2147483648) L_43) (and (not .def_1245) (and (<= L_43 2147483647) (<= Q_43 2147483647))))))) (and (or Y1_43 (= (+ O_43 (* (- 1) .x.2161)) (- 1))) (and .def_386 (and .def_73 (and .def_204 (and .def_173 (and .def_372 (and .def_221 (and .loc.12 (and .def_71 (and .def_69 (and .def_156 (and .loc.7 (and .def_1108 (and .def_951 (and .def_218 (and .def_154 (and .def_151 (and .def_687 (and .def_807 (and .def_148 (and .def_257 (and .def_259 (and .def_145 (and .def_413 (and .def_142 (and .def_410 (and .def_139 (and .def_571 (and .def_573 (and .def_136 (and .def_689 (and .def_133 (and .def_215 (and .def_210 (and .def_405 (and .def_130 (and .def_127 (and .def_124 (and .def_121 (and .def_953 (and .def_809 (and .def_270 .def_1110)))))))))))))))))))))))))))))))))))))))))))) (and (= J_43 .x.2156) (and (= F_43 .x.2152) (= H_43 .x.2154)))) (and (or Z1_25 (and (and (= .x.2156 0) (= .x.2152 0)) (= Z1_0 (store B_43 0 0)))) (and (or Y1_43 (and (and (and (and (and (and (and (and (and (and (and (and (and (and (and (and (and (and (and (and (and (and (and (and (and (and (and (and (and (and (not (<= .x.2147 .x.2165)) (not (<= .x.2147 .x.2160))) (not (<= .x.2147 .x.2172))) (not (<= .x.2147 .x.2173))) (not (<= .x.2147 .x.2177))) (not (<= .x.2147 .x.2186))) (not (<= .x.2147 .x.2184))) (= .x.2159 0)) (= .x.2161 0)) (= .x.2164 0)) (not (= .x.2165 0))) (= .x.2171 0)) (not (= .x.2173 0))) (not (= .x.2177 0))) (= .x.2179 0)) (= .x.2182 0)) (= .x.2192 0)) (= .x.2189 0)) (not (= .x.2184 0))) (not (= .x.2160 0))) (not (= .x.2172 0))) (not (= .x.2186 0))) (= (select .def_1432 .x.2172) 0)) (= (select .def_1436 .x.2160) 0)) (= (select .def_1443 .x.2177) 0)) (= (select Z1_0 .x.2186) 0)) (= (select .def_1440 .x.2173) 0)) (= (select .def_1441 .x.2184) 0)) (= (select .def_1442 .x.2165) 0)) (= .x.2154 (store (store (store (store (store (store (store H_43 .x.2186 400000) .x.2172 400000) .x.2160 400000) .x.2173 400000) .x.2184 400000) .x.2165 400000) .x.2177 400000))) (= .x.2148 (store .def_1443 .x.2177 1)))) (and .def_386 (and .def_73 (and .def_67 (and .def_204 (and .def_173 (and .def_372 (and .def_221 (and .loc.12 (and .def_71 (and .def_69 (and .loc.6 (and .def_218 (and .def_121 (and .def_212 .def_407))))))))))))))))))))))))))))))))))))))))))))))))))))))))))))))))))))))))))))))))))))))))))))))))))))))))))))))))))))) (state |.x.2147| |.x.2148| |.x.2149| |.x.2150| |.x.2151| |.x.2152| |.x.2153| |.x.2154| |.x.2155| |.x.2156| |.x.2157| |.x.2158| |.x.2159| |.x.2160| |.x.2161| |.x.2162| |.x.2163| |.x.2164| |.x.2165| |.x.2166| |.x.2167| |.x.2168| |.x.2169| |.x.2170| |.x.2171| |.x.2172| |.x.2173| |.x.2174| |.x.2175| |.x.2176| |.x.2177| |.x.2178| |.x.2179| |.x.2180| |.x.2181| |.x.2182| |.x.2183| |.x.2184| |.x.2185| |.x.2186| |.x.2187| |.x.2188| |.x.2189| |.x.2190| |.x.2191| |.x.2192| |.x.2193| |.x.2194| |.x.2195| |.x.2196| |Y1_43| |.loc.11| |.loc.12| |.loc.13| |.loc.14| |.loc.15| |.xtv.1|))))
(assert (forall ((|A_43| Int) (|B_43| (Array Int Int)) (|C_43| (Array Int Int)) (|D_43| (Array Int Int)) (|E_43| (Array Int Int)) (|F_43| Int) (|G_43| Int) (|H_43| (Array Int Int)) (|I_43| (Array Int Int)) (|J_43| Int) (|K_43| Int) (|L_43| Int) (|M_43| Int) (|N_43| Int) (|O_43| Int) (|P_43| Int) (|Q_43| Int) (|R_43| Int) (|S_43| Int) (|T_43| Int) (|U_43| Int) (|V_43| Int) (|W_43| Int) (|X_43| Int) (|Y_43| Int) (|Z_43| Int) (|A1_43| Int) (|B1_43| Int) (|C1_43| Int) (|D1_43| Int) (|E1_43| Int) (|F1_43| Int) (|G1_43| Int) (|H1_43| Int) (|I1_43| Int) (|J1_43| Int) (|K1_43| Int) (|L1_43| Int) (|M1_43| Int) (|N1_43| Int) (|O1_43| Int) (|P1_43| Int) (|Q1_43| Int) (|R1_43| Int) (|S1_43| Int) (|T1_43| Int) (|U1_43| Int) (|V1_43| Int) (|W1_43| Int) (|X1_43| Int) (|Z1_25| Bool) (|.loc.6| Bool) (|.loc.7| Bool) (|.loc.8| Bool) (|.loc.9| Bool) (|.loc.10| Bool) (|Z1_0| (Array Int Int)) (|.x.2157| Int) (|.x.2155| (Array Int Int)) (|.x.2153| Int) (|.x.2151| (Array Int Int)) (|.x.2147| Int) (|.x.2149| (Array Int Int)) (|.x.2148| (Array Int Int)) (|Y1_43| Bool) (|.x.2159| Int) (|.x.2160| Int) (|.x.2164| Int) (|.x.2165| Int) (|.x.2170| Int) (|.x.2171| Int) (|.x.2172| Int) (|.x.2173| Int) (|.x.2177| Int) (|.x.2179| Int) (|.x.2182| Int) (|.x.2184| Int) (|.x.2186| Int) (|.x.2189| Int) (|.x.2192| Int) (|.x.2193| Int) (|.loc.13| Bool) (|.loc.12| Bool) (|.x.2175| Int) (|.x.2162| Int) (|.x.2176| Int) (|.x.2194| Int) (|.loc.11| Bool) (|.x.2188| Int) (|.x.2187| Int) (|.loc.14| Bool) (|.loc.15| Bool) (|.x.2174| Int) (|.x.2150| (Array Int Int)) (|.x.2183| Int) (|.x.2185| Int) (|.x.2181| Int) (|.x.2180| Int) (|.x.2191| Int) (|.x.2178| Int) (|.x.2190| Int) (|.x.2168| Int) (|.x.2195| Int) (|.x.2169| Int) (|.x.2196| Int) (|.x.2166| Int) (|.x.2167| Int) (|.x.2163| Int) (|.x.2158| Int) (|.x.2161| Int) (|.x.2156| Int) (|.x.2152| Int) (|.x.2154| (Array Int Int)) (|.xtv.1| (Array Int Int))) (=> (state |A_43| |B_43| |C_43| |D_43| |E_43| |F_43| |G_43| |H_43| |I_43| |J_43| |K_43| |L_43| |M_43| |N_43| |O_43| |P_43| |Q_43| |R_43| |S_43| |T_43| |U_43| |V_43| |W_43| |X_43| |Y_43| |Z_43| |A1_43| |B1_43| |C1_43| |D1_43| |E1_43| |F1_43| |G1_43| |H1_43| |I1_43| |J1_43| |K1_43| |L1_43| |M1_43| |N1_43| |O1_43| |P1_43| |Q1_43| |R1_43| |S1_43| |T1_43| |U1_43| |V1_43| |W1_43| |X1_43| |Z1_25| |.loc.6| |.loc.7| |.loc.8| |.loc.9| |.loc.10| |Z1_0|) (not (and Z1_25 (and .loc.10 (and (not .loc.9) (and .loc.8 (and (not .loc.7) (not .loc.6))))))))))
(check-sat)
